240 5
10 10 10 10 10 

0 0 0 0 0 0 5 2 14 26 38 50 
0 0 0 0 0 0 3 3 8 12 
7 1 0 0 0 0 2 11 4 
9 4 0 0 0 0 1 5 
3 2 0 0 0 0 1 6 
8 2 0 0 0 0 2 7 46 
6 1 0 0 0 0 1 9 
3 1 0 0 0 0 1 9 
5 3 0 0 0 0 1 10 
5 2 0 0 0 0 1 13 
10 3 0 0 0 0 1 13 
10 6 0 0 0 0 1 13 
0 0 0 0 0 0 1 62 
0 0 0 0 0 0 2 15 17 
6 0 0 0 1 0 1 16 
3 0 0 0 1 0 1 18 
7 0 0 0 3 0 2 18 39 
2 0 0 0 4 0 1 19 
10 0 0 0 2 0 2 21 20 
10 0 0 0 1 0 2 24 22 
3 0 0 0 2 0 2 24 22 
2 0 0 0 2 0 1 23 
6 0 0 0 4 0 1 25 
2 0 0 0 5 0 1 25 
0 0 0 0 0 0 1 62 
0 0 0 0 0 0 2 27 29 
10 0 0 0 1 0 2 36 28 
10 0 0 0 4 0 1 30 
5 0 0 0 1 0 2 36 32 
8 0 0 0 6 0 1 31 
2 0 0 0 2 0 1 32 
10 0 0 0 1 0 2 35 33 
7 0 0 0 3 0 1 34 
4 0 0 0 1 0 1 37 
10 0 0 0 3 0 2 37 103 
10 0 0 0 3 0 1 37 
0 0 0 0 0 0 1 62 
0 0 0 0 0 0 2 39 41 
9 1 0 0 0 0 2 42 40 
5 4 0 0 0 0 1 43 
3 1 0 0 0 0 1 42 
8 4 0 0 0 0 2 48 44 
10 4 0 0 0 0 2 48 44 
2 4 0 0 0 0 1 45 
5 2 0 0 0 0 2 46 105 
4 1 0 0 0 0 1 47 
8 3 0 0 0 0 1 49 
7 1 0 0 0 0 1 49 
0 0 0 0 0 0 1 62 
0 0 0 0 0 0 2 51 52 
8 0 0 0 0 1 2 56 53 
7 0 0 0 0 4 2 56 55 
9 0 0 0 0 2 1 54 
9 0 0 0 0 3 1 55 
2 0 0 0 0 4 3 60 57 123 
8 0 0 0 0 4 1 57 
6 0 0 0 0 2 1 58 
10 0 0 0 0 2 1 59 
8 0 0 0 0 1 1 61 
5 0 0 0 0 2 1 61 
0 0 0 0 0 0 1 62 
0 0 0 0 0 0 4 63 95 107 139 
0 0 0 0 0 0 2 64 93 
5 1 0 0 1 1 1 65 
5 2 0 0 2 2 1 66 
1 2 0 0 1 2 1 67 
3 4 0 0 4 2 1 68 
2 2 0 0 3 1 2 92 69 
3 4 0 0 4 1 1 70 
6 4 0 0 3 3 2 91 71 
10 2 0 0 2 5 4 90 89 88 72 
5 2 0 0 2 3 2 80 73 
6 2 0 0 3 5 1 74 
5 3 0 0 2 1 1 75 
2 3 0 0 2 2 1 76 
5 4 0 0 3 2 2 87 77 
1 4 0 0 2 1 1 78 
1 1 0 0 3 4 1 79 
9 1 0 0 3 2 1 81 
6 4 0 0 5 2 1 81 
6 3 0 0 1 4 1 82 
8 3 0 0 3 5 1 83 
9 2 0 0 3 3 1 84 
6 2 0 0 2 2 2 85 177 
2 3 0 0 4 4 1 86 
1 2 0 0 1 1 1 94 
10 3 0 0 3 2 1 94 
3 2 0 0 2 2 1 94 
8 2 0 0 3 4 1 94 
1 2 0 0 2 1 1 94 
6 2 0 0 3 1 1 94 
4 2 0 0 1 5 1 94 
9 2 0 0 2 2 1 94 
0 0 0 0 0 0 1 229 
0 0 0 0 0 0 2 96 97 
10 0 1 0 0 0 2 99 98 
10 0 1 0 0 0 2 99 98 
6 0 2 0 0 0 1 100 
8 0 4 0 0 0 1 100 
7 0 4 0 0 0 2 104 101 
9 0 3 0 0 0 1 102 
1 0 3 0 0 0 1 103 
2 0 4 0 0 0 1 105 
7 0 2 0 0 0 2 105 224 
3 0 1 0 0 0 1 106 
0 0 0 0 0 0 2 171 183 
0 0 0 0 0 0 2 108 137 
3 1 1 0 1 0 1 109 
4 4 2 0 3 0 1 110 
8 3 2 0 2 0 1 111 
1 4 4 0 1 0 1 112 
5 2 2 0 5 0 2 126 113 
5 4 4 0 1 0 1 114 
5 1 2 0 1 0 1 115 
6 2 3 0 3 0 3 123 118 116 
9 4 3 0 5 0 2 120 117 
1 3 3 0 1 0 3 125 122 119 
8 4 2 0 2 0 2 125 124 
5 2 3 0 1 0 1 121 
10 3 1 0 1 0 1 121 
7 3 6 0 1 0 1 124 
2 2 1 0 3 0 1 124 
9 2 3 0 1 0 1 125 
9 3 2 0 4 0 1 127 
10 2 2 0 1 0 1 127 
10 2 4 0 4 0 1 127 
6 2 1 0 4 0 1 128 
4 2 3 0 5 0 2 136 129 
7 3 3 0 2 0 1 130 
1 3 2 0 5 0 1 131 
2 3 1 0 4 0 1 132 
1 3 3 0 1 0 1 133 
7 1 1 0 1 0 2 134 148 
8 2 1 0 3 0 1 135 
1 2 2 0 2 0 1 138 
2 1 6 0 5 0 1 138 
1 2 2 0 2 0 1 138 
0 0 0 0 0 0 1 229 
0 0 0 0 0 0 2 140 145 
10 1 0 1 0 1 1 141 
7 3 0 3 0 4 1 142 
9 4 0 2 0 3 2 144 143 
6 2 0 2 0 2 1 146 
6 5 0 4 0 1 1 146 
2 3 0 2 0 2 1 146 
7 3 0 2 0 1 2 150 147 
6 1 0 1 0 1 2 153 148 
10 2 0 6 0 3 1 149 
1 2 0 1 0 4 2 160 151 
1 3 0 5 0 3 2 153 152 
9 4 0 2 0 2 1 152 
8 1 0 1 0 2 2 159 154 
8 3 0 3 0 2 1 154 
6 3 0 3 0 5 1 155 
7 1 0 2 0 3 3 169 164 156 
1 2 0 4 0 2 1 157 
5 2 0 2 0 3 1 158 
6 5 0 4 0 3 1 161 
4 1 0 2 0 2 2 161 223 
10 3 0 5 0 4 2 169 164 
8 2 0 1 0 1 1 162 
8 1 0 4 0 2 1 163 
6 2 0 2 0 1 1 165 
8 4 0 4 0 1 1 165 
3 1 0 1 0 4 1 166 
6 2 0 1 0 4 1 167 
10 5 0 1 0 2 1 168 
2 2 0 2 0 3 1 170 
2 2 0 2 0 4 1 170 
0 0 0 0 0 0 1 229 
0 0 0 0 0 0 3 172 179 215 
5 0 0 1 0 0 1 173 
6 0 0 3 0 0 1 174 
2 0 0 2 0 0 2 176 175 
7 0 0 1 0 0 1 177 
2 0 0 3 0 0 1 177 
10 0 0 3 0 0 1 178 
4 0 0 4 0 0 2 181 180 
7 0 0 1 0 0 2 181 180 
10 0 0 1 0 0 1 182 
9 0 0 6 0 0 1 182 
0 0 0 0 0 0 2 205 217 
0 0 0 0 0 0 1 184 
6 1 1 0 0 0 2 185 208 
2 1 5 0 0 0 2 189 186 
3 1 3 0 0 0 1 187 
4 2 2 0 0 0 1 188 
10 6 1 0 0 0 2 193 190 
3 2 3 0 0 0 2 193 190 
2 2 1 0 0 0 2 196 191 
7 1 1 0 0 0 1 192 
2 3 4 0 0 0 1 194 
7 1 2 0 0 0 2 201 196 
1 2 2 0 0 0 1 195 
5 2 5 0 0 0 3 201 200 197 
1 2 3 0 0 0 2 200 197 
8 3 3 0 0 0 1 198 
5 4 1 0 0 0 1 199 
8 2 2 0 0 0 1 202 
5 1 6 0 0 0 1 202 
8 5 2 0 0 0 1 202 
6 6 2 0 0 0 1 203 
4 3 1 0 0 0 1 204 
0 0 0 0 0 0 1 229 
0 0 0 0 0 0 1 206 
10 0 0 0 0 1 2 215 207 
2 0 0 0 0 2 2 208 227 
1 0 0 0 0 2 1 209 
9 0 0 0 0 3 2 212 210 
10 0 0 0 0 2 2 213 211 
9 0 0 0 0 2 1 214 
6 0 0 0 0 2 1 213 
6 0 0 0 0 3 1 216 
1 0 0 0 0 4 1 216 
8 0 0 0 0 4 1 216 
0 0 0 0 0 0 1 229 
0 0 0 0 0 0 2 218 219 
6 0 0 1 0 0 2 222 220 
10 0 0 1 0 0 2 222 221 
8 0 0 3 0 0 1 221 
6 0 0 2 0 0 1 223 
5 0 0 3 0 0 1 223 
4 0 0 2 0 0 1 224 
8 0 0 4 0 0 2 227 225 
9 0 0 4 0 0 1 226 
10 0 0 3 0 0 1 228 
3 0 0 2 0 0 1 228 
0 0 0 0 0 0 1 229 
0 0 0 0 0 0 1 230 
8 1 0 0 0 0 2 235 231 
6 3 0 0 0 0 1 232 
5 2 0 0 0 0 3 239 238 233 
9 3 0 0 0 0 1 234 
7 3 0 0 0 0 1 236 
3 2 0 0 0 0 1 236 
7 4 0 0 0 0 1 237 
9 1 0 0 0 0 1 240 
5 2 0 0 0 0 1 240 
4 4 0 0 0 0 1 240 
0 0 0 0 0 0 0 
